set Tareas:= INICIO A B C D E F G H I FIN;

set Precedencias:=
INICIO A
INICIO B
INICIO C
A D
B D
C D
D E
E F
F G
F H
F I
G J
H J
I J
J FIN;

param : 
	P	A		C		S	H:=
A	10	5	5000	10000	50
B	5	5	500		500		0
C	8	4	3000	6000	250
D	3	1	1000	3500	10
E	7	5	4500	9500	345
F	5	3	8000	12000	500
G	10	7	5000	7400	70
H	2	2	5000	5000	10
I	3	2	7000	8000	5
J	12	10	28000	10000	100;

let TFL["FIN"] := TFP["FIN"];